89	531
90	462
95	405
100	378
103	343
107	326
108	287
120	274
123	269
127	259
129	251
139	246
141	238
144	233
145	232
148	223
156	219
158	208
164	207
168	202
176	194
177	183
179	172
190	164
199	155
210	150
215	139
223	132
228	127
241	126
246	121
273	115
295	111
307	110
310	105
316	88
362	77
409	70
423	69
